n_res = 3;
rcap = [34, 43, 64];
rtype = [1, 2, 2];
n_tasks = 16;
modes = [ {1, 2, 3}, {4, 5, 6}, {7, 8, 9}, {10, 11, 12}, {13, 14, 15}, {16, 17, 18}, {19, 20, 21}, {22, 23, 24}, {25, 26, 27}, {28, 29, 30}, {31, 32, 33}, {34, 35, 36}, {37, 38, 39}, {40, 41, 42}, {43, 44, 45}, {46, 47, 48} ];
succ = [ {4, 5, 7}, {4, 10, 13}, {5, 7, 11}, {15}, {6, 8, 9}, {10, 14}, {10, 12, 15}, {12, 15}, {13, 14}, {16}, {12}, {13, 14}, {16}, {}, {}, {} ];
n_opt = 48;
dur = [6, 8, 9, 1, 1, 4, 1, 7, 8, 1, 1, 10, 3, 3, 5, 2, 6, 6, 4, 4, 6, 4, 7, 7, 2, 2, 7, 3, 8, 10, 8, 8, 9, 2, 3, 10, 2, 5, 8, 2, 5, 9, 3, 5, 10, 1, 8, 8];
rreq = [|  7,  5,  5,  6,  4,  1,  6,  6,  5,  7,  7,  6,  7,  8,  7,  9,  6,  5,  9, 10,  9,  7,  5,  6,  8,  8,  7,  9,  8,  8,  7,  5,  3,  7,  6,  5,  8,  5,  4,  9,  8,  8,  3,  2,  1,  9,  8,  8
        |  0,  0,  1,  7,  0,  0,  0,  0,  0,  6,  0,  5,  3,  0,  0,  0,  8,  0,  7,  0,  6,  7,  0,  7,  0,  6,  6,  0,  0,  0,  0,  0,  5,  0,  6,  0,  9,  7,  6,  0,  0,  6,  0,  0,  0,  0,  8,  0
        |  7,  4,  0,  0,  8,  2,  6,  4,  3,  0,  8,  0,  0,  8,  7,  8,  0,  5,  0,  7,  0,  0,  3,  0,  6,  0,  0, 10,  8,  4,  3,  4,  0, 10,  0,  5,  0,  0,  0, 10,  8,  0,  9,  8,  8,  8,  0,  7 |];
